#P B3LYP/6-31G(d) SP Pop=Full GFInput

CH2O

0 1
C  0.00000000  0.00000000  0.00000000
O  0.00000000  0.00000000  1.20651800
H  0.00000000  0.93772900 -0.59467900
H -0.00000000 -0.93772900 -0.59467900

